FILENAME:   ../instances_new/flowersnark/flowersnark15_3.cip
SETTINGS:   settings_isopr_ostrowskidynamicbranching_avoidsubtreenodes
TIMELIMIT:  7200
OUTPUTNAME: final_flowersnark__settings_isopr_ostrowskidynamicbranching_avoidsubtreenodes__3__
BINNAME:    bin/symmetries.linux.x86_64.gnu.opt.cpx
BASENAME:   flowersnark15_3.cip
SEED:       3
@01 ../instances_new/flowersnark/flowersnark15_3.cip ===========
@02 flowersnark15_3.cip
@03 1686559580
SCIP version 8.0.2 [precision: 8 byte] [memory: block] [mode: optimized] [LP solver: CPLEX 20.1.0.0] [GitHash: 5f0473c]
Copyright (C) 2002-2022 Konrad-Zuse-Zentrum fuer Informationstechnik Berlin (ZIB)

Symmetry handling routines - (c) Marc Pfetsch, Thomas Rehn, Christopher Hojny.
[GitHash: a1587cb]


Turned off presolver <gateextraction>.
reading parameter file <../settings/settings_isopr_ostrowskidynamicbranching_avoidsubtreenodes.set> ...

Changed settings:
limits/time = 7200
limits/restarts = 0
randomization/randomseedshift = 3
constraints/orbitope/sepafreq = -1
constraints/orbitope/propfreq = 1
presolving/gateextraction/maxrounds = 0
propagating/isoprune/avoidsubtreenodes = TRUE
useisoprune = TRUE


solving problem ...

original problem has 270 variables (270 bin, 0 int, 0 impl, 0 cont) and 270 constraints
presolving:
(round 1, exhaustive) 0 del vars, 0 del conss, 0 add conss, 0 chg bounds, 0 chg sides, 0 chg coeffs, 270 upgd conss, 0 impls, 270 clqs
   (0.0s) probing: 51/270 (18.9%) - 0 fixings, 0 aggregations, 0 implications, 0 bound changes
   (0.0s) probing aborted: 50/50 successive totally useless probings
Required symmetry:			(1 bin, 0 int, 0 cont); (fixed: 0 bin, 1 int, 0 cont)
Time for symmetry detection:		0.00 	(matrix graph, 540 nodes, 810 edges)
Number of generators:			5 	(max: 1500)
Order of symmetry group:		360
Log10 of symmetry group order:		2.6
Number of vars moved by some symmetry:	270
Total time for symmetry detection:	0.00

Turned off presolver <domcol>.
Turned off presolver <components>.

presolving (2 rounds: 2 fast, 2 medium, 2 exhaustive):
 0 deleted vars, 0 deleted constraints, 0 added constraints, 0 tightened bounds, 0 added holes, 0 changed sides, 0 changed coefficients
 0 implications, 270 cliques
presolved problem has 270 variables (270 bin, 0 int, 0 impl, 0 cont) and 271 constraints
    270 constraints of type <setppc>
      1 constraints of type <symmetries>
transformed objective value is always integral (scale: 1)
Presolving Time: 0.00

 time | node  | left  |LP iter|LP it/n|mem/heur|mdpt |frac |vars |cons |cols |rows |cuts |confs|strbr|  dualbound   | primalbound  |  gap   
  0.0s|     1 |     0 |    29 |     - |  4192k |   0 | 140 | 270 | 292 | 270 | 270 |   0 |  20 |   0 | 0.000000e+00 |      --      |    Inf 
  0.1s|     1 |     2 |   194 |     - |  5139k |   0 | 140 | 270 | 495 | 270 | 270 |   0 |  23 |  12 | 0.000000e+00 |      --      |    Inf 
  0.3s|   100 |    40 |  4449 |  43.3 |  6613k |  16 |   - | 270 | 895 |   0 |   0 |   0 | 472 |  12 | 0.000000e+00 |      --      |    Inf 
  0.4s|   200 |    26 |  7498 |  36.8 |  7055k |  16 |   - | 270 |1287 | 270 | 270 |   0 | 864 |  12 | 0.000000e+00 |      --      |    Inf 
  0.8s|   300 |    32 | 12101 |  39.9 |  7961k |  16 |   - | 270 |1608 | 270 | 270 |   0 |1186 |  12 | 0.000000e+00 |      --      |    Inf 
  1.0s|   400 |    43 | 16932 |  42.0 |    10M |  16 |   - | 270 |1907 | 270 | 270 |   0 |1486 |  12 | 0.000000e+00 |      --      |    Inf 
  1.1s|   500 |    37 | 20598 |  40.9 |    11M |  16 |   - | 270 |2183 | 270 | 270 |   0 |1762 |  12 | 0.000000e+00 |      --      |    Inf 
  1.8s|   600 |    61 | 24901 |  41.3 |    13M |  16 | 104 | 270 |2504 | 270 | 270 |   0 |2083 |  12 | 0.000000e+00 |      --      |    Inf 
  2.0s|   700 |    99 | 27597 |  39.2 |    14M |  16 |  52 | 270 |3037 | 270 | 270 |   0 |2626 |  12 | 0.000000e+00 |      --      |    Inf 
  2.1s|   800 |   120 | 30100 |  37.5 |    15M |  16 |  77 | 270 |3469 | 270 | 270 |   0 |3077 |  12 | 0.000000e+00 |      --      |    Inf 
  2.3s|   900 |   128 | 32923 |  36.4 |    16M |  16 |   - | 270 |3765 | 270 | 270 |   0 |3421 |  12 | 0.000000e+00 |      --      |    Inf 
  2.4s|  1000 |   115 | 35607 |  35.5 |    17M |  17 |  40 | 270 |4000 | 270 | 270 |   0 |3790 |  12 | 0.000000e+00 |      --      |    Inf 
  2.6s|  1100 |   104 | 38338 |  34.7 |    18M |  17 |   - | 270 |4094 | 270 | 270 |   0 |4148 |  12 | 0.000000e+00 |      --      |    Inf 
  2.9s|  1200 |   115 | 42144 |  35.0 |    18M |  17 |  60 | 270 |4007 | 270 | 270 |   0 |4488 |  12 | 0.000000e+00 |      --      |    Inf 
  3.2s|  1300 |   128 | 45888 |  35.2 |    20M |  17 |  56 | 270 |3763 | 270 | 270 |   0 |4686 |  12 | 0.000000e+00 |      --      |    Inf 
 time | node  | left  |LP iter|LP it/n|mem/heur|mdpt |frac |vars |cons |cols |rows |cuts |confs|strbr|  dualbound   | primalbound  |  gap   
  3.3s|  1400 |   129 | 50087 |  35.7 |    20M |  18 |   - | 270 |3839 | 270 | 270 |   0 |4938 |  12 | 0.000000e+00 |      --      |    Inf 
  3.5s|  1500 |   129 | 53736 |  35.7 |    21M |  19 |  56 | 270 |3820 | 270 | 270 |   0 |5147 |  12 | 0.000000e+00 |      --      |    Inf 
  3.6s|  1600 |   117 | 56142 |  35.0 |    21M |  20 |   - | 270 |3651 | 270 | 270 |   0 |5381 |  12 | 0.000000e+00 |      --      |    Inf 
  3.8s|  1700 |    93 | 59093 |  34.7 |    21M |  20 |   - | 270 |3267 |   0 |   0 |   0 |5611 |  12 | 0.000000e+00 |      --      |    Inf 
  4.0s|  1800 |    89 | 62559 |  34.7 |    21M |  20 |   - | 270 |3243 |   0 |   0 |   0 |5774 |  12 | 0.000000e+00 |      --      |    Inf 
  4.1s|  1900 |    72 | 65665 |  34.5 |    21M |  20 | 117 | 270 |3248 | 270 | 270 |   0 |6005 |  12 | 0.000000e+00 |      --      |    Inf 
  4.3s|  2000 |    73 | 67905 |  33.9 |    21M |  20 |  52 | 270 |3277 | 270 | 270 |   0 |6187 |  12 | 0.000000e+00 |      --      |    Inf 
  4.4s|  2100 |    92 | 70169 |  33.4 |    21M |  20 |  45 | 270 |3315 | 270 | 270 |   0 |6448 |  12 | 0.000000e+00 |      --      |    Inf 
  4.5s|  2200 |    89 | 72678 |  33.0 |    21M |  20 |   - | 270 |3426 | 270 | 270 |   0 |6660 |  12 | 0.000000e+00 |      --      |    Inf 
  4.6s|  2300 |    72 | 75224 |  32.6 |    21M |  20 |   - | 270 |3539 |   0 |   0 |   0 |6933 |  12 | 0.000000e+00 |      --      |    Inf 
  4.8s|  2400 |    66 | 78097 |  32.5 |    21M |  20 |   - | 270 |3555 | 270 | 270 |   0 |7147 |  12 | 0.000000e+00 |      --      |    Inf 
  4.9s|  2500 |    55 | 80849 |  32.3 |    21M |  20 | 118 | 270 |3623 | 270 | 270 |   0 |7383 |  12 | 0.000000e+00 |      --      |    Inf 
  5.0s|  2600 |    44 | 82604 |  31.7 |    21M |  20 |  62 | 270 |3608 | 270 | 270 |   0 |7549 |  12 | 0.000000e+00 |      --      |    Inf 
  5.2s|  2700 |    30 | 85128 |  31.5 |    22M |  20 |   - | 270 |3715 |   0 |   0 |   0 |7817 |  12 | 0.000000e+00 |      --      |    Inf 
  5.3s|  2800 |    54 | 87964 |  31.4 |    22M |  20 |   - | 270 |3763 | 270 | 270 |   0 |8103 |  12 | 0.000000e+00 |      --      |    Inf 
 time | node  | left  |LP iter|LP it/n|mem/heur|mdpt |frac |vars |cons |cols |rows |cuts |confs|strbr|  dualbound   | primalbound  |  gap   
  5.5s|  2900 |    62 | 91016 |  31.3 |    22M |  20 |  58 | 270 |3853 | 270 | 270 |   0 |8304 |  12 | 0.000000e+00 |      --      |    Inf 
  5.6s|  3000 |    54 | 93770 |  31.2 |    22M |  20 |   - | 270 |3995 | 270 | 270 |   0 |8563 |  12 | 0.000000e+00 |      --      |    Inf 
  5.8s|  3100 |    30 | 96237 |  31.0 |    22M |  20 |   - | 270 |4006 |   0 |   0 |   0 |8765 |  12 | 0.000000e+00 |      --      |    Inf 
  6.0s|  3200 |    32 | 99762 |  31.1 |    22M |  20 |  74 | 270 |3973 | 270 | 270 |   0 |8979 |  12 | 0.000000e+00 |      --      |    Inf 
  6.1s|  3300 |    31 |102798 |  31.1 |    22M |  20 |   - | 270 |4020 | 270 | 270 |   0 |9182 |  12 | 0.000000e+00 |      --      |    Inf 
  6.2s|  3400 |    29 |105956 |  31.1 |    22M |  20 |   - | 270 |4157 | 270 | 270 |   0 |9421 |  12 | 0.000000e+00 |      --      |    Inf 
  6.4s|  3500 |    28 |111067 |  31.7 |    22M |  20 |  56 | 270 |4272 | 270 | 270 |   0 |9582 |  12 | 0.000000e+00 |      --      |    Inf 
  6.5s|  3600 |    17 |114062 |  31.6 |    22M |  20 |  28 | 270 |4337 | 270 | 270 |   0 |9782 |  12 | 0.000000e+00 |      --      |    Inf 
  6.9s|  3700 |    10 |117418 |  31.7 |    22M |  20 |   - | 270 |4188 | 270 | 270 |   0 |9943 |  12 | 0.000000e+00 |      --      |    Inf 
  7.0s|  3800 |    13 |120951 |  31.8 |    22M |  20 |  28 | 270 |4234 | 270 | 270 |   0 |  10k|  12 | 0.000000e+00 |      --      |    Inf 
  7.2s|  3900 |     9 |124523 |  31.9 |    22M |  20 |  40 | 270 |4293 | 270 | 270 |   0 |  10k|  12 | 0.000000e+00 |      --      |    Inf 

SCIP Status        : problem is solved [infeasible]
Solving Time (sec) : 7.26
Solving Nodes      : 3956
Primal Bound       : +1.00000000000000e+20 (0 solutions)
Dual Bound         : +1.00000000000000e+20
Gap                : 0.00 %

Number of variables fixed to 0 by isomorphism pruning:	   152
Number of variables fixed to 1 by isomorphism pruning:	     7
@04 1686559587
